StudentsNr = 10;
InstructorsNr = 27;
DaysNr = 2;
SlotsPerDay = 10;
AvailabilitySlotsLenght = 10;
RoomNr = 2;
ProgrammNr = 1;
DegreeNr = 1;
RolesNr = 1;
CoursesNr = 6;
InstructorsProgramm = [{1}, {1}, {1}, {1}, {1}, {1}, {1}, {1}, {1}, {1}, {1}, {1}, {1}, {1}, {1}, {1}, {1}, {1}, {1}, {1}, {1}, {1}, {1}, {1}, {1}, {1}, {1}];
InstructorRolesPerProgramm = [|{2, 4, 5, 6, 7, 11, 12, 14, 15, 16, 17, 19, 20, 22, 23, 25}|];
InstructorsAvailability = [|0, 0, |1, 0, |1, 1, |0, 1, |1, 1, |0, 0, |1, 1, |1, 1, |1, 1, |1, 1, |0, 0, |0, 1, |0, 0, |1, 1, |0, 1, |0, 0, |1, 0, |1, 1, |0, 1, |1, 1, |1, 0, |1, 0, |1, 0, |0, 0, |0, 1, |0, 0, |0, 1|];
StudentsProgramm = [1, 1, 1, 1, 1, 1, 1, 1, 1, 1];
StudentsDegree = [1, 1, 1, 1, 1, 1, 1, 1, 1, 1];
StudentsSupervisorId = [22, 14, 6, 13, 7, 7, 9, 22, 9, 8];
StudentsCourseIds = [{2, 4}, {5, 6}, {4, 5}, {4, 5}, {2, 6}, {1, 6}, {2, 6}, {1, 5}, {3, 4}, {2, 5}];
StudentsAvailability = [|1, 1, |0, 1, |1, 1, |1, 1, |1, 1, |0, 1, |1, 1, |1, 1, |1, 1, |0, 0|];
TheoryticalMinCard = [0, 0, 0, 0, 0, 0, 0, 0, 0, 0];
CoursesInstructorIds = [{1, 3, 4, 7, 8, 9, 10, 11, 12, 13, 15, 17, 19, 20, 21, 22, 24, 25}, {1, 2, 5, 6, 8, 9, 10, 11, 12, 13, 15, 16, 18, 20, 22, 23, 24, 25}, {1, 2, 4, 9, 12, 13, 16, 25}, {1, 2, 3, 4, 7, 9, 11, 13, 14, 15, 16, 17, 20, 23, 25, 26}, {6, 7, 11, 13, 14, 17, 18, 21, 22, 24, 26, 27}, {2, 3, 5, 7, 8, 9, 10, 12, 14, 17, 18, 19, 20, 23, 24, 25, 27}];
RolesDemands = [4];
RolesContinuity = [];
ExamLen = [1, 1, 1, 1, 1, 1, 1, 1, 1, 1];
LunchTsMinLen = 1;
LunchStarts = [2..7, 12..16];
SupervisorAvailable = 0;
OptimalLunchLenght = [0, 1];
OptimalStartTs = [2, 0];
OptimalFinishTs = [2, 10];
MinimizeRooms = 200;
RolesSoftContinuity = [|1|4|];
SameDegreeInRoom = 0;
Mergeability = 0;
